data;

param w := 38;
param n := 19;
param min_h := 38;
param max_h := 55;

set BLOCKS := 1 2 3 4 5 6 7 8 9 10 11 12 13 14 15 16 17 18 19 ;

param:	width	height :=
	1	24	38
	2	4	16
	3	4	15
	4	4	12
	5	4	11
	6	3	13
	7	3	11
	8	4	8
	9	3	10
	10	3	9
	11	3	8
	12	4	6
	13	3	7
	14	4	5
	15	3	6
	16	3	5
	17	3	4
	18	4	3
	19	3	3;